(set-logic QF_S)
(declare-fun var0 () String)
(declare-fun var1 () Int)
(declare-fun var2 () Int)
(declare-fun var3 () String)
(declare-fun var4 () Int)
(declare-fun var5 () String)
(declare-fun var6 () String)
(declare-fun var7 () Bool)
(declare-fun var8 () Int)
(assert (str.prefixof (str.at var0 var1) (str.replace (str.at "PpPBMz'`lI" var2) (str.at var3 var4) (str.replace var5 var6 var3))))
(assert (str.suffixof "o_" var6))
(assert (not var7))
(assert (str.contains (str.replace (str.at var3 var8) (str.replace var0 "yF1G?" "aC]+YLM<A") (str.replace var0 var5 var0)) (str.at (str.replace var6 var5 var5) (str.indexof var3 var6 var2))))
(check-sat)